
Welcome to IBM(R) ILOG(R) CPLEX(R) Interactive Optimizer 22.1.1.0
  with Simplex, Mixed Integer & Barrier Optimizers
5725-A06 5725-A29 5724-Y48 5724-Y49 5724-Y54 5724-Y55 5655-Y21
Copyright IBM Corp. 1988, 2022.  All Rights Reserved.

Type 'help' for a list of available commands.
Type 'help' followed by a command name for more
information on commands.

CPLEX> Selected objective sense:  MINIMIZE
Selected objective  name:  00000000
Selected RHS        name:  RHS1
Selected bound      name:  BOUND
Problem 'ee.mps' read.
Read time = 0.02 sec. (3.17 ticks)
CPLEX> New value for time limit in seconds: 7200
CPLEX> New value for parallel optimization mode: -1
CPLEX> New value for default parallel thread count: 40
CPLEX> New value for mixed integer optimality gap tolerance: 1e-13
CPLEX> Version identifier: 22.1.1.0 | 2022-11-28 | 9160aff4d
CPXPARAM_Threads                                 40
CPXPARAM_Parallel                                -1
CPXPARAM_TimeLimit                               7200
CPXPARAM_MIP_Tolerances_MIPGap                   1e-13
Found incumbent of value 0.000000 after 0.00 sec. (0.31 ticks)
Tried aggregator 3 times.
MIP Presolve eliminated 756 rows and 3849 columns.
MIP Presolve modified 5787 coefficients.
Aggregator did 629 substitutions.
Reduced MIP has 3145 rows, 6844 columns, and 24812 nonzeros.
Reduced MIP has 6844 binaries, 0 generals, 0 SOSs, and 0 indicators.
Presolve time = 0.07 sec. (75.15 ticks)
Probing fixed 52 vars, tightened 0 bounds.
Probing time = 0.05 sec. (24.42 ticks)
Tried aggregator 2 times.
Detecting symmetries...
MIP Presolve eliminated 9 rows and 62 columns.
Aggregator did 11 substitutions.
Reduced MIP has 3125 rows, 6768 columns, and 24532 nonzeros.
Reduced MIP has 6768 binaries, 0 generals, 0 SOSs, and 0 indicators.
Presolve time = 0.04 sec. (43.41 ticks)
Probing time = 0.03 sec. (8.32 ticks)
Clique table members: 16180.
MIP emphasis: balance optimality and feasibility.
MIP search method: dynamic search.
Parallel mode: opportunistic, using up to 40 threads.
Root relaxation solution time = 0.07 sec. (54.95 ticks)

        Nodes                                         Cuts/
   Node  Left     Objective  IInf  Best Integer    Best Bound    ItCnt     Gap

*     0+    0                            0.0000  -1.54000e+13              --- 
*     0+    0                      -7.20000e+12  -1.54000e+13           113.89%
      0     0  -1.53900e+13    61  -7.20000e+12  -1.53900e+13     1591  113.75%
*     0+    0                      -1.41900e+13  -1.53900e+13             8.46%
*     0+    0                      -1.53900e+13  -1.53900e+13             0.00%
      0     0  -1.53900e+13    70  -1.53900e+13      Cuts: 61     2066    0.00%
*     0+    0                      -1.53900e+13  -1.53900e+13             0.00%
      0     0  -1.53900e+13   141  -1.53900e+13      Cuts: 43     2254    0.00%
*     0+    0                      -1.53900e+13  -1.53900e+13             0.00%
      0     2  -1.53900e+13   121  -1.53900e+13  -1.53900e+13     2254    0.00%
Elapsed time = 1.38 sec. (737.04 ticks, tree = 0.02 MB, solutions = 6)
    278    31  -1.53900e+13   179  -1.53900e+13  -1.53900e+13    19885    0.00%
    695   100        cutoff        -1.53900e+13  -1.53900e+13    75472    0.00%
   1290   145        cutoff        -1.53900e+13  -1.53900e+13   105870    0.00%
   2116   328  -1.53900e+13   130  -1.53900e+13  -1.53900e+13   175462    0.00%
   2969   443  -1.53900e+13   230  -1.53900e+13  -1.53900e+13   225668    0.00%
   3639   596  -1.53900e+13   263  -1.53900e+13  -1.53900e+13   279032    0.00%
   4152   445  -1.53900e+13   220  -1.53900e+13  -1.53900e+13   223311    0.00%
   4626   567  -1.53900e+13   195  -1.53900e+13  -1.53900e+13   264584    0.00%
   5102   951  -1.53900e+13   181  -1.53900e+13  -1.53900e+13   421481    0.00%
   7965   960  -1.53900e+13   126  -1.53900e+13  -1.53900e+13   435544    0.00%
Elapsed time = 7.34 sec. (3841.66 ticks, tree = 9.21 MB, solutions = 6)
  10816  1823  -1.53900e+13    79  -1.53900e+13  -1.53900e+13   648205    0.00%
  12712  2068  -1.53900e+13    63  -1.53900e+13  -1.53900e+13   772183    0.00%

Performing restart 1

Repeating presolve.
Tried aggregator 3 times.
MIP Presolve eliminated 1068 rows and 2455 columns.
MIP Presolve added 2 rows and 0 columns.
MIP Presolve modified 2074 coefficients.
Aggregator did 307 substitutions.
Reduced MIP has 1736 rows, 3981 columns, and 13806 nonzeros.
Reduced MIP has 3981 binaries, 0 generals, 0 SOSs, and 0 indicators.
Presolve time = 0.06 sec. (52.85 ticks)
Tried aggregator 2 times.
MIP Presolve eliminated 63 rows and 94 columns.
Aggregator did 35 substitutions.
Reduced MIP has 1638 rows, 3849 columns, and 13264 nonzeros.
Reduced MIP has 3849 binaries, 0 generals, 0 SOSs, and 0 indicators.
Presolve time = 0.03 sec. (22.56 ticks)
Tried aggregator 1 time.
MIP Presolve eliminated 6 rows and 4 columns.
Reduced MIP has 1632 rows, 3845 columns, and 13246 nonzeros.
Reduced MIP has 3845 binaries, 0 generals, 0 SOSs, and 0 indicators.
Presolve time = 0.03 sec. (15.40 ticks)
Represolve time = 0.25 sec. (142.20 ticks)
  13028     0  -1.53900e+13   169  -1.53900e+13       Cuts: 9   920041    0.00%
  13028     0  -1.53900e+13   164  -1.53900e+13      Cuts: 26   920206    0.00%
  13028     0  -1.53900e+13   149  -1.53900e+13      Cuts: 34   920409    0.00%
  13028     0  -1.53900e+13   210  -1.53900e+13      Cuts: 25   920637    0.00%
  13028     0  -1.53900e+13   262  -1.53900e+13      Cuts: 19   920794    0.00%
  13028     0  -1.53900e+13   159  -1.53900e+13      Cuts: 37   921029    0.00%
  13028     0  -1.53900e+13   148  -1.53900e+13      Cuts: 27   921202    0.00%
  13028     0  -1.53900e+13   174  -1.53900e+13      Cuts: 23   921322    0.00%
  13028     0  -1.53900e+13   108  -1.53900e+13      Cuts: 13   921398    0.00%
  13028     0  -1.53900e+13   165  -1.53900e+13      Cuts: 11   921477    0.00%
  13028     0  -1.53900e+13   186  -1.53900e+13      Cuts: 25   921597    0.00%
  13028     0  -1.53900e+13   218  -1.53900e+13      Cuts: 10   921678    0.00%
  13028     0  -1.53900e+13   283  -1.53900e+13      Cuts: 19   921750    0.00%
  13028     4        cutoff        -1.53900e+13  -1.53900e+13   924790    0.00%
  13169     3  -1.53900e+13   155  -1.53900e+13  -1.53900e+13   922158    0.00%

Clique cuts applied:  6
Cover cuts applied:  344
Flow cuts applied:  2
Mixed integer rounding cuts applied:  14
Zero-half cuts applied:  46
Gomory fractional cuts applied:  12

Root node processing (before b&c):
  Real time             =    0.84 sec. (735.28 ticks)
Parallel b&c, 40 threads:
  Real time             =   11.85 sec. (9369.92 ticks)
  Sync time (average)   =    2.69 sec.
  Wait time (average)   =    0.11 sec.
                          ------------
Total (root+branch&cut) =   12.70 sec. (10105.19 ticks)

Solution pool: 6 solutions saved.

MIP - Integer optimal solution:  Objective = -1.5389999789e+13
Solution time =   12.81 sec.  Iterations = 932068  Nodes = 13191
Deterministic time = 10105.23 ticks  (788.71 ticks/sec)

CPLEX> Solution 'p7' written to file 'ee.sol'.
CPLEX> 